c 3 - XORSAT
p cnf 30 120
8 28 11 0
-8 -28 11 0
-8 28 -11 0
8 -28 -11 0
1 16 18 0
-1 -16 18 0
-1 16 -18 0
1 -16 -18 0
-2 -22 -25 0
-2 22 25 0
2 -22 25 0
2 22 -25 0
-4 -21 -29 0
-4 21 29 0
4 -21 29 0
4 21 -29 0
-13 -25 -27 0
-13 25 27 0
13 -25 27 0
13 25 -27 0
4 14 26 0
-4 -14 26 0
-4 14 -26 0
4 -14 -26 0
3 10 14 0
-3 -10 14 0
-3 10 -14 0
3 -10 -14 0
-2 -16 -19 0
-2 16 19 0
2 -16 19 0
2 16 -19 0
-1 -14 -20 0
-1 14 20 0
1 -14 20 0
1 14 -20 0
-16 -20 -28 0
-16 20 28 0
16 -20 28 0
16 20 -28 0
3 22 27 0
-3 -22 27 0
-3 22 -27 0
3 -22 -27 0
-12 -17 -19 0
-12 17 19 0
12 -17 19 0
12 17 -19 0
9 11 13 0
-9 -11 13 0
-9 11 -13 0
9 -11 -13 0
3 15 30 0
-3 -15 30 0
-3 15 -30 0
3 -15 -30 0
2 22 9 0
-2 -22 9 0
-2 22 -9 0
2 -22 -9 0
7 10 11 0
-7 -10 11 0
-7 10 -11 0
7 -10 -11 0
5 7 26 0
-5 -7 26 0
-5 7 -26 0
5 -7 -26 0
-20 -21 -25 0
-20 21 25 0
20 -21 25 0
20 21 -25 0
4 6 12 0
-4 -6 12 0
-4 6 -12 0
4 -6 -12 0
-6 -12 -17 0
-6 12 17 0
6 -12 17 0
6 12 -17 0
28 29 30 0
-28 -29 30 0
-28 29 -30 0
28 -29 -30 0
6 8 15 0
-6 -8 15 0
-6 8 -15 0
6 -8 -15 0
7 5 13 0
-7 -5 13 0
-7 5 -13 0
7 -5 -13 0
10 18 27 0
-10 -18 27 0
-10 18 -27 0
10 -18 -27 0
1 9 23 0
-1 -9 23 0
-1 9 -23 0
1 -9 -23 0
23 30 24 0
-23 -30 24 0
-23 30 -24 0
23 -30 -24 0
24 23 26 0
-24 -23 26 0
-24 23 -26 0
24 -23 -26 0
5 18 21 0
-5 -18 21 0
-5 18 -21 0
5 -18 -21 0
-15 -17 -29 0
-15 17 29 0
15 -17 29 0
15 17 -29 0
-8 -19 -24 0
-8 19 24 0
8 -19 24 0
8 19 -24 0
